param Riesgos:=
0[1]	5	
1[1]	4		5		6	
2[1]
3[1]
4[1]
5[1]
6[1]
7[1]	4	
8[1]
9[1]	1		3	
10[1]
11[1]	3	
12[1]	1		3		5	
13[1]	1		2		5	
14[1]	2		6	
0[2]	2		3		6	
1[2]	4		6	
2[2]	1		4	
3[2]	4	
0[3]	1		4		5	
1[3]	3		4		5	
2[3]
3[3]	1		2		3	
4[3]	1		2		4	
5[3]
6[3]	4	
7[3]	2		3	
8[3]	1		2		5	
9[3]	2		5	
10[3]	2		6	
